 &CONTROL
   calculation     =  'relax',
   nstep           =  200,
   outdir          =  '/temp/matic/pw/graphene-3x2.C-vac',
   pseudo_dir      =  '/home/matic/pw/pseudo',
   restart_mode    =  'from_scratch',
 /

 &SYSTEM
   celldm(1)       =  4.628,
   degauss         =  0.01,
   ecutrho         =  200.0,
   ecutwfc         =  20.0,
   ibrav           =  0,
   nat             =  11,
   nosym           =  .true.,
   ntyp            =  1,
   occupations     =  'smearing',
   smearing        =  'm-v',
 /

 &ELECTRONS
   conv_thr        =  1d-7,
   mixing_mode     =  'plain',
 /

 &IONS
   ion_dynamics    =  'fire',
   upscale         =  100,
 /

ATOMIC_SPECIES 
  C    12.0107   C.pbe-rrkjus.UPF 


CELL_PARAMETERS alat
    3.0000000000000000   0.0000000000000000   0.0000000000000000
   -1.0000000000000000   1.7320508075688772   0.0000000000000000
    0.0000000000000000   0.0000000000000000   3.0000000000000000

ATOMIC_POSITIONS angstrom
  C        0.046119399000  -0.017774136000   0.000000000000
  C       -1.281316255000   2.177168885000   0.000000000000
  C        2.483959806000   0.006239763000   0.000000000000
  C        1.191006369000   2.075660264000   0.000000000000
  C        4.892813606000  -0.018583734000   0.000000000000
  C        3.665977618000   2.142308615000   0.000000000000
  C       -1.184622104000   3.557357992000   0.000000000000
  C        2.417345183000   1.402702866000   0.000000000000
  C        1.207062521000   3.487230859000   0.000000000000
  C        4.903425533000   1.411617203000   0.000000000000
  C        3.698912394000   3.572076573000   0.000000000000

K_POINTS automatic
  2   3   1   1   1   1 



