 &CONTROL
   calculation          =  'relax',
   nstep                =  250,
   outdir               =  './',
   pseudo_dir           =  './',
   restart_mode         =  'from_scratch',
 /

 &SYSTEM
   celldm(1)            =  5.395224740453357,
   degauss              =  0.03,
   ecutrho              =  280.0,
   ecutwfc              =  35.0,
   nosym                = .true.
   ibrav                =  0,
   nat                  =  151,
   ntyp                 =  1,
   occupations          =  'smearing',
   smearing             =  'methfessel-paxton',
 /

 &ELECTRONS
   conv_thr             =  1d-7,
   electron_maxstep     =  220,
   mixing_beta          =  0.2,
 /

 &IONS
   upscale              =  100,
   ion_dynamics         = 'fire' 
 /

ATOMIC_SPECIES 
  Al    26.981539   Al.pbe-n-rrkjus_psl.0.1.UPF 

CELL_PARAMETERS alat
    5.0000000000000000   0.0000000000000000   0.0000000000000000
    0.0000000000000000   5.0000000000000000   0.0000000000000000
    0.0000000000000000   0.0000000000000000   8.78937359761998829244

ATOMIC_POSITIONS angstrom
Al      7.1375437340     7.1375619546    12.2021812612
Al      2.8536589295     2.8537393479    10.4453426689
Al      2.8241053639     5.7102979072    10.4419693613
Al      2.8241073277     8.5649003276    10.4417635597
Al      2.8536892180    11.4214672939    10.4453643133
Al      2.8542833151    14.2751357179    10.4475600122
Al      5.7102967390     2.8241429334    10.4418478174
Al      5.6420317080     5.6420554278    10.4833896657
Al      5.6420104237     8.6331414932    10.4835136589
Al      5.7103557269    11.4509713337    10.4418014897
Al      5.7126741692    14.2751049039    10.4477059067
Al      8.5648461492     2.8242043273    10.4419438703
Al      8.6331099693     5.6420339719    10.4835114602
Al      8.6330525244     8.6330583910    10.4833619439
Al      8.5649004109    11.4509625130    10.4417787975
Al      8.5627355455    14.2751115855    10.4478705138
Al     11.4213910624     2.8537700980    10.4451942847
Al     11.4508969607     5.7103896212    10.4417916589
Al     11.4509067855     8.5648627811    10.4418150587
Al     11.4213853480    11.4214666260    10.4453560200
Al     11.4211368446    14.2751645211    10.4475104615
Al     14.2750728970     2.8540966439    10.4474967222
Al     14.2750835698     5.7125033004    10.4478486745
Al     14.2750999864     8.5625706313    10.4477235555
Al     14.2751957080    11.4209529935    10.4475754157
Al     14.2752567340    14.2751348211    10.4475515502
Al      1.4268182377     1.4267458518     8.3624198714
Al      1.4256227314     4.2810042434     8.3566303822
Al      1.4321294241     7.1374978994     8.3461687018
Al      1.4255810368     9.9941698516     8.3565305987
Al      1.4267775632    12.8484016613     8.3623694484
Al      4.2810829181     1.4256003617     8.3565997966
Al      4.2773845579     4.2774587208     8.3600894280
Al      4.2992563223     7.1376065899     8.3825094326
Al      4.2774729541     9.9976996866     8.3601549271
Al      4.2809531506    12.8495675909     8.3565526165
Al      7.1375813232     1.4321929282     8.3463238479
Al      7.1376017305     4.2992360731     8.3824845777
Al      7.1375693244     7.1375973752     8.5063561979
Al      7.1375121217     9.9758715557     8.3824672828
Al      7.1376024766    12.8430308748     8.3461478323
Al      9.9941093121     1.4255612745     8.3566598691
Al      9.9976625021     4.2774338109     8.3599704226
Al      9.9758842909     7.1375362210     8.3824135966
Al      9.9976794551     9.9977213143     8.3599972970
Al      9.9941441282    12.8495728511     8.3565705358
Al     12.8483423114     1.4268189140     8.3623227939
Al     12.8495844693     4.2810082643     8.3565566587
Al     12.8429700240     7.1376120158     8.3462989040
Al     12.8495660281     9.9940962884     8.3566369044
Al     12.8483674330    12.8482798216     8.3624383173
Al      2.8567904300     2.8567778801     6.2647057454
Al      2.8633166938     5.7128973497     6.2697041030
Al      2.8632718755     8.5622544932     6.2697167261
Al      2.8567069162    11.4183743149     6.2647007342
Al      2.8598849311    14.2751616658     6.2606832674
Al      5.7129236651     2.8632739343     6.2696707612
Al      5.7253717793     5.7253525026     6.2872230545
Al      5.7253442480     8.5498274960     6.2871960454
Al      5.7128655728    11.4118964046     6.2696963274
Al      5.7108421723    14.2751942242     6.2701288497
Al      8.5622382665     2.8632665794     6.2697515011
Al      8.5498258156     5.7253487099     6.2871703008
Al      8.5497875095     8.5498004084     6.2872110810
Al      8.5622132689    11.4118945939     6.2697004064
Al      8.5641340204    14.2751495466     6.2701906230
Al     11.4183733219     2.8567156220     6.2645872713
Al     11.4119026343     5.7128895970     6.2697086624
Al     11.4119115458     8.5622209736     6.2696859182
Al     11.4183167366    11.4183515438     6.2646734910
Al     11.4151547654    14.2751250819     6.2607089512
Al     14.2751561897     2.8599154084     6.2606763413
Al     14.2751899577     5.7109209643     6.2701898560
Al     14.2751575021     8.5642253022     6.2701274196
Al     14.2751213775    11.4151932804     6.2606880014
Al     14.2750840305    14.2751519636     6.2626267922
Al      1.4359645255     1.4360137155     4.1145751092
Al      1.4272922841     4.2857427712     4.1216958286
Al      1.4279551224     7.1375789808     4.1207140884
Al      1.4272224983     9.9894100341     4.1216645591
Al      1.4359608452    12.8391489768     4.1146245788
Al      4.2857149431     1.4272368202     4.1216435493
Al      4.2874796352     4.2875148901     4.1324893354
Al      4.2925864205     7.1375954669     4.1229511581
Al      4.2874441974     9.9877084671     4.1324798609
Al      4.2857015849    12.8479859696     4.1216689199
Al      7.1375163188     1.4277844624     4.1206670777
Al      7.1375944068     4.2924575074     4.1229881969
Al      7.1376910960     7.1375513617     4.1227548026
Al      7.1375482839     9.9826555004     4.1229736809
Al      7.1375147328    12.8473178596     4.1206980557
Al      9.9893543532     1.4272519713     4.1216643011
Al      9.9876989376     4.2874510314     4.1324981760
Al      9.9827711748     7.1375769395     4.1230078357
Al      9.9876552366     9.9877262473     4.1324832667
Al      9.9893414570    12.8479079737     4.1217226234
Al     12.8390756927     1.4360186575     4.1145517417
Al     12.8479569596     4.2857445153     4.1216788086
Al     12.8474677469     7.1375821874     4.1206511354
Al     12.8479336969     9.9893902515     4.1216676644
Al     12.8390723431    12.8391286688     4.1145865444
Al     0.00000000 0.00000000 2.01878500  0 0 0  
Al     0.00000000 2.85502997 2.01878500  0 0 0  
Al     0.00000000 5.71005994 2.01878500  0 0 0 
Al     0.00000000 8.56508990 2.01878500  0 0 0 
Al     0.00000000 11.42011987 2.0187850  0 0 0 
Al     2.85502997 0.00000000 2.01878500  0 0 0 
Al     2.85502997 2.85502997 2.01878500  0 0 0 
Al     2.85502997 5.71005994 2.01878500  0 0 0 
Al     2.85502997 8.56508990 2.01878500  0 0 0 
Al     2.85502997 11.42011987 2.0187850  0 0 0 
Al     5.71005994 0.00000000 2.01878500  0 0 0 
Al     5.71005994 2.85502997 2.01878500  0 0 0 
Al     5.71005994 5.71005994 2.01878500  0 0 0 
Al     5.71005994 8.56508990 2.01878500  0 0 0 
Al     5.71005994 11.42011987 2.0187850  0 0 0 
Al     8.56508990 0.00000000 2.01878500  0 0 0 
Al     8.56508990 2.85502997 2.01878500  0 0 0 
Al     8.56508990 5.71005994 2.01878500  0 0 0 
Al     8.56508990 8.56508990 2.01878500  0 0 0 
Al     8.56508990 11.42011987 2.0187850  0 0 0 
Al     11.42011987 0.00000000 2.0187850  0 0 0 
Al     11.42011987 2.85502997 2.0187850  0 0 0 
Al     11.42011987 5.71005994 2.0187850  0 0 0 
Al     11.42011987 8.56508990 2.0187850  0 0 0 
Al     11.42011987 11.42011987 2.0187850 0 0 0 
Al     1.42750000 1.42750000  0.00000000 0 0 0   
Al     1.42750000 4.28252997  0.00000000 0 0 0 
Al     1.42750000 7.13755994  0.00000000 0 0 0 
Al     1.42750000 9.99258990  0.00000000 0 0 0 
Al     1.42750000 12.84761987 0.00000000 0 0 0 
Al     4.28252997 1.42750000  0.00000000 0 0 0 
Al     4.28252997 4.28252997  0.00000000 0 0 0 
Al     4.28252997 7.13755994  0.00000000 0 0 0 
Al     4.28252997 9.99258990  0.00000000 0 0 0 
Al     4.28252997 12.84761987 0.00000000 0 0 0 
Al     7.13755994 1.42750000  0.00000000 0 0 0 
Al     7.13755994 4.28252997  0.00000000 0 0 0 
Al     7.13755994 7.13755994  0.00000000 0 0 0 
Al     7.13755994 9.99258990  0.00000000 0 0 0 
Al     7.13755994 12.84761987 0.00000000 0 0 0 
Al     9.99258990 1.42750000  0.00000000 0 0 0 
Al     9.99258990 4.28252997  0.00000000 0 0 0 
Al     9.99258990 7.13755994  0.00000000 0 0 0 
Al     9.99258990 9.99258990  0.00000000 0 0 0 
Al     9.99258990 12.84761987 0.00000000 0 0 0 
Al     12.84761987 1.42750000 0.00000000 0 0 0 
Al     12.84761987 4.28252997 0.00000000 0 0 0 
Al     12.84761987 7.13755994 0.00000000 0 0 0 
Al     12.84761987 9.99258990 0.00000000 0 0 0 
Al     12.84761987 12.84761987 0.00000000 0 0 0   
K_POINTS automatic
  1   1   1   0   0   0 



