 &CONTROL
   calculation     =  'relax'
   nstep           =  200
   outdir          =  './'
   pseudo_dir      =  './'
   restart_mode    =  'from_scratch'
 /

 &SYSTEM
   celldm(1)       =  10.16648
   degauss         =  0.0001
   ecutwfc         =  18.0
   ibrav           =  0
   nat             =  53
   nosym           =  .true.
   ntyp            =  1
   occupations     =  'smearing'
   smearing        =  'mp'
 /

 &ELECTRONS
   conv_thr        =  1e-7
   mixing_beta     =  0.2
   mixing_mode     =  'plain'
 /

 &IONS
   ion_dynamics    =  'fire'
   upscale         =  100
 /

ATOMIC_SPECIES 
  Si    28.086   Si.pz-vbc.UPF 


CELL_PARAMETERS alat
   -1.5000000000000000   0.0000000000000000   1.5000000000000000
    0.0000000000000000   1.5000000000000000   1.5000000000000000
   -1.5000000000000000   1.5000000000000000   0.0000000000000000

ATOMIC_POSITIONS angstrom
  Si       0.060525844500  -0.060347671300  -0.060291491500
  Si      -2.867007006500   2.866549314600  -0.162685151500
  Si      -5.381272493800   5.381643046700  -0.015783659500
  Si       0.161460512300   2.865060416600   2.864963453400
  Si      -2.680156021900   5.410985345600   2.680786002800
  Si      -5.368173204100   8.069024555100   2.684969960900
  Si       0.015897936000   5.382094633100   5.382188438400
  Si      -2.684456789900   8.068999669200   5.367569847900
  Si      -5.377336287000  10.767522121300   5.378470353000
  Si      -2.866661898200  -0.162390605300   2.866107433700
  Si      -5.411066278100   2.680288480200   2.680412253500
  Si      -8.068613856300   5.368190045900   2.684933894600
  Si      -2.680240127600   2.680746504200   5.410957367000
  Si      -5.375105903500   5.374689204000   5.374581791800
  Si      -8.069897922000   8.070508659900   5.401002634400
  Si      -2.684475539900   5.367567053600   8.069112544100
  Si      -5.401865424900   8.070698795700   8.070852409800
  Si      -8.079177622800  10.761958194800   8.078853423900
  Si      -5.381352603400  -0.015800170200   5.381819197900
  Si      -8.068600965100   2.684822518000   5.368075020100
  Si     -10.766964046100   5.377978906000   5.378211737400
  Si      -5.368055410600   2.684877919500   8.069124678300
  Si      -8.069931358900   5.401162297400   8.070701543200
  Si     -10.762245701200   8.079157724700   8.079096609600
  Si      -5.377408018600   5.378316770700  10.767648398900
  Si      -8.079121840000   8.078855341100  10.761901772400
  Si     -10.755950880100  10.755545313800  10.755445800400
  Si      -4.059396116200   4.059269637100   1.382847636000
  Si      -6.739563906800   6.738995492800   1.375630571800
  Si      -1.382579766300   4.059536756300   4.059496984300
  Si      -4.034837141000   6.724590359000   4.035159433500
  Si      -6.722307010900   9.381126317600   4.049481978200
  Si      -1.375227525900   6.738684361900   6.738551593000
  Si      -4.049794612600   9.381442194000   6.721451267300
  Si      -6.727902992800  12.092981789000   6.728290040400
  Si      -4.059439382400   1.382802707100   4.059275006100
  Si      -6.724440042200   4.035467385100   4.035534677400
  Si      -9.381264366400   6.721601007400   4.049572906900
  Si      -4.034752061700   4.035007749100   6.724622131000
  Si      -6.709901542400   6.709616307500   6.709559568000
  Si      -9.415484343200   9.415397806300   6.737087098200
  Si      -4.049765934800   6.721632357000   9.381422332200
  Si      -6.737011591200   9.415200035500   9.415178193900
  Si      -9.418569266900  12.100039973900   9.418088006600
  Si      -6.739501473600   1.375536259100   6.738800292300
  Si      -9.381317861800   4.049636106800   6.721428742600
  Si     -12.092804978300   6.727753259500   6.727833053700
  Si      -6.722310764900   4.049519334500   9.381168543800
  Si      -9.415449377600   6.737065957600   9.415339602300
  Si     -12.099704508600   9.418278979200   9.418186586000
  Si      -6.728015885900   6.728324625000  12.093036500700
  Si      -9.418548129000   9.418158570100  12.100125819900
  Si     -12.101312794200  12.102086572100  12.102261454000

K_POINTS automatic
  1   1   1   0   0   0 



