 &CONTROL
   calculation     =  'relax',
   nstep           =  250,
   outdir          =  './',
   pseudo_dir      =  './',
   restart_mode    =  'from_scratch',
 /

 &SYSTEM
   degauss         =  0.01,
   ecutrho         =  200.0,
   ecutwfc         =  20.0,
   ibrav           =  0,
   nat             =  25,
   nosym           =  .true.,
   ntyp            =  2,
   occupations     =  'smearing',
   smearing        =  'm-v',
 /

 &ELECTRONS
   conv_thr        =  1d-7,
   mixing_mode     =  'plain',
 /

 &IONS
   ion_dynamics    =  'fire',
   upscale         =  100,
 /

ATOMIC_SPECIES 
  C    12.0107   C.pbe-rrkjus.UPF 
  Li    6.941   Li.pbe-s-rrkjus_psl.0.2.1.UPF 


CELL_PARAMETERS angstrom
    7.3470963641000004   0.0000000000000000   0.0000000000000000
   -2.4490296723000000   4.2418460857999998   0.0000000000000000
    0.0000000000000000   0.0000000000000000   7.4000028049999997

ATOMIC_POSITIONS angstrom
  C        7.343473600200   0.008089712100  -0.107838804400
  C        7.343706475000   0.003535796400   3.774561932100
  C        6.118702926100   2.128969655800  -0.103255113900
  C        6.118675486900   2.124097090400   3.768677446800
  C        2.451994460500   0.008524365600  -0.109579039300
  C        2.451719747700   0.004146063100   3.774977782700
  C        1.225254085600   2.134081361200  -0.109039502100
  C        1.225051021900   2.129844732000   3.774342280100
  C        4.897853032100   0.011501579300  -0.102697925400
  C        4.898415356900   0.005596923200   3.761603210900
  C        3.675900694500   2.134015413100  -0.100450732400
  C        3.676387576800   2.128036766600   3.761981135000
  C       -0.002208296000   1.425202307300  -0.109426747600
  C       -0.002351610900   1.420577035100   3.777811953600
  C       -1.224342278600   3.541419526100  -0.108991688200
  C       -1.224505292200   3.536668425900   3.776564396000
  C        2.453404305000   1.425862147200  -0.108697351200
  C        2.453350193100   1.421274550000   3.771046029900
  C        1.229341563300   3.546846069200  -0.104295328400
  C        1.229372527500   3.542535264400   3.764454327200
  C        4.898261908000   1.424862891400  -0.102116449700
  C        4.898970478700   1.418978534700   3.763457978700
  C        3.670932686400   3.544386990400  -0.099441865900
  C        3.671685113200   3.538613412300   3.762758558700
  Li       1.216011318300   0.707729497500   1.833593516900

K_POINTS automatic
  2   3   2   1   1   1 



