 &CONTROL
   calculation     =  'relax',
   nstep           =  200,
   outdir          =  './',
   pseudo_dir      =  './',
   restart_mode    =  'from_scratch',
   tprnfor         =  .true.,
 /

 &SYSTEM
   celldm(1)       =  7.6533908,
   degauss         =  0.05,
   ecutwfc         =  7.0,
   ibrav           =  0,
   nat             =  31,
   nosym           =  .true.,
   ntyp            =  1,
   occupations     =  'smearing',
   smearing        =  'marzari-vanderbilt',
 /

 &ELECTRONS
   conv_thr        =  1.0d-6,
   electron_maxstep =  2000,
   mixing_beta     =  0.5,
   mixing_mode     =  'local-TF',
   startingwfc     =  'random',
 /

 &IONS
   ion_dynamics    =  'fire',
 /

 &CELL
 /

ATOMIC_SPECIES 
  Al    1.0   Al.pz-vbc.UPF 


CELL_PARAMETERS (alat=
    1.9121246340000000   0.0000000000000000   0.0000000000000000
    0.0000000000000000   1.9121246340000000   0.0000000000000000
    0.0000000000000000   0.0000000000000000   1.9121246340000000

ATOMIC_POSITIONS (angstrom)
  Al      -0.017919486400  -0.000000000000  -0.017919486400
  Al       1.935994440400   1.953905806500  -0.017916807700
  Al      -0.017916807700   1.953905806500   1.935994440400
  Al       3.889971870400  -0.000000000000  -0.017919486400
  Al      -1.935994440400   0.000000000000   1.935994440400
  Al      -1.935994440400   1.946426226700  -0.010447850000
  Al       3.889969191700   1.953913122900   1.936001756800
  Al      -0.010443329400   3.872052384000  -0.010443329400
  Al       1.936001756800   3.872052384000   1.936001756800
  Al       1.935994440400  -1.953905806500  -0.017916807700
  Al      -0.017916807700  -1.953905806500   1.935994440400
  Al       3.882495713400   3.872052384000  -0.010443329400
  Al      -1.936001756800   3.872052384000   1.936001756800
  Al      -1.935994440400  -1.946426226700  -0.010447850000
  Al       3.889969191700  -1.953913122900   1.936001756800
  Al      -0.017919486400  -0.000000000000   3.889971870400
  Al       1.935994440400   0.000000000000  -1.935994440400
  Al       1.936001756800   1.953913122900   3.889969191700
  Al      -0.010447850000   1.946426226700  -1.935994440400
  Al       3.889971870400  -0.000000000000   3.889971870400
  Al      -1.935994440400  -0.000000000000  -1.935994440400
  Al      -1.936001756800   1.946433543100   3.882500234000
  Al       3.882500234000   1.946433543100  -1.936001756800
  Al      -0.010443329400   3.872052384000   3.882495713400
  Al       1.936001756800   3.872052384000  -1.936001756800
  Al       1.936001756800  -1.953913122900   3.889969191700
  Al      -0.010447850000  -1.946426226700  -1.935994440400
  Al       3.882495713400   3.872052384000   3.882495713400
  Al      -1.936001756800   3.872052384000  -1.936001756800
  Al      -1.936001756800  -1.946433543100   3.882500234000
  Al       3.882500234000  -1.946433543100  -1.936001756800

K_POINTS AUTOMATIC
  1   1   1   0   0   0 



