 &CONTROL
   calculation     =  'relax'
   outdir          =  './'
   pseudo_dir      =  './'
   restart_mode    =  'from_scratch'
   nstep =    250
 /

 &SYSTEM
   celldm(1)       =  10.167669478
   ecutwfc         =  18.0
   ibrav           =  0
   nat             =  63
   nbnd            =  160
   ntyp            =  1
   nosym           = .true.
 /

 &ELECTRONS
   conv_thr        =  1e-7
   mixing_beta     =  0.2
   mixing_mode     =  'local-TF'
   scf_must_converge =  .false.
 /

 &IONS
   ion_dynamics    = 'fire'
   upscale         =  100
 /

ATOMIC_SPECIES 
  Si    28.086   Si.pz-vbc.UPF 


CELL_PARAMETERS alat
    2.0000000000000000   0.0000000000000000   0.0000000000000000
    0.0000000000000000   2.0000000000000000   0.0000000000000000
    0.0000000000000000   0.0000000000000000   2.0000000000000000

ATOMIC_POSITIONS angstrom
 Si      2.6555175930     2.6555175930     0.0566731860    
 Si      2.8592173310     2.8592173310     5.3290564000    
 Si      2.6515838830     8.1165199970    -0.0384133760    
 Si      2.8719133670     7.9061137800     5.4476359040    
 Si      8.1165199970     2.6515838830    -0.0384133760    
 Si      7.9061137800     2.8719133670     5.4476359040    
 Si      8.1209167360     8.1209167360     0.0571427950    
 Si      7.9051495360     7.9051495360     5.3316733200    
 Si      0.0065392290     0.0065392290     0.0043360460    
 Si      0.0075994850     0.0075994850     5.3852978040    
 Si      0.0087800180     5.3917641390     0.0000183000    
 Si      0.0091042570     5.3877814200     5.3862366900    
 Si      5.3917641390     0.0087800180     0.0000183000    
 Si      5.3877814200     0.0091042570     5.3862366900    
 Si      5.3886077680     5.3886077680     0.0072744920    
 Si      2.6988337570    -0.0191154980     2.7425649670    
 Si      2.6971710920     0.0284533680     8.0315015460    
 Si      2.7280573720     5.4030883130     2.6683120660    
 Si      2.7324945100     5.3660450390     8.1045939260    
 Si      8.0775186900     0.0289358580     2.7494685780    
 Si      8.0791389540    -0.0179301480     8.0248564710    
 Si      8.0477702320     5.3676946130     2.6636545090    
 Si      8.0436642870     5.4030373480     8.1099501490    
 Si     -0.0191154980     2.6988337570     2.7425649670    
 Si      0.0284533680     2.6971710920     8.0315015460    
 Si      0.0289358580     8.0775186900     2.7494685780    
 Si     -0.0179301480     8.0791389540     8.0248564710    
 Si      5.4030883130     2.7280573720     2.6683120660    
 Si      5.3660450390     2.7324945100     8.1045939260    
 Si      5.3676946130     8.0477702320     2.6636545090    
 Si      5.4030373480     8.0436642870     8.1099501490    
 Si      4.0303957410     1.3262471660     1.3844761880    
 Si      4.0542708790     1.4011839140     6.7054452920    
 Si      4.0013840260     6.7690668240     1.2821876990    
 Si      4.3370936060     6.4385821180     6.7761358990    
 Si      9.4312678020     1.3386418140     1.3705811810    
 Si      9.3651196650     1.4118317250     6.7088742630    
 Si      9.4490887190     6.7471935070     1.3864991760    
 Si      9.3703538090     6.7142473080     6.7051938100    
 Si      1.3262471660     4.0303957410     1.3844761880    
 Si      1.4011839140     4.0542708790     6.7054452920    
 Si      1.3386418140     9.4312678020     1.3705811810    
 Si      1.4118317250     9.3651196650     6.7088742630    
 Si      6.7690668240     4.0013840260     1.2821876990    
 Si      6.4385821180     4.3370936060     6.7761358990    
 Si      6.7471935070     9.4490887190     1.3864991760    
 Si      6.7142473080     9.3703538090     6.7051938100    
 Si      4.3177886390     4.3177886390     3.9991974330    
 Si      4.0032123420     4.0032123420     9.4956910850    
 Si      4.0572276870     9.3715169560     4.0707139530    
 Si      4.0245300220     9.4433217150     9.3911550440    
 Si      9.3715169560     4.0572276870     4.0707139530    
 Si      9.4433217150     4.0245300220     9.3911550440    
 Si      9.3620049690     9.3620049690     4.0703359160    
 Si      9.4313772370     9.4313772370     9.4039123010    
 Si      1.4076001470     1.4076001470     4.0582412240    
 Si      1.3435056820     1.3435056820     9.4054387240    
 Si      1.4066831430     6.7199312180     4.0712403930    
 Si      1.3312015540     6.7492422760     9.3787153890    
 Si      6.7199312180     1.4066831430     4.0712403930    
 Si      6.7492422760     1.3312015540     9.3787153890    
 Si      6.4514401730     6.4514401730     3.9895062850    
 Si      6.7736870440     6.7736870440     9.4952327140    
K_POINTS automatic
  1   1   1   0   0   0 



