 &CONTROL
   calculation     =  'relax',
   nstep           =  250,
   outdir          =  '/scratch/mpoberzn/temp/mpoberzn/pw/Ofcc.Al111-2x2-4l',
   pseudo_dir      =  '/scratch/mpoberzn/pw/pseudo',
   restart_mode    =  'from_scratch',
   wf_collect      =  .true.,
 /

 &SYSTEM
   degauss         =  0.03,
   ecutrho         =  280.0,
   ecutwfc         =  35.0,
   ibrav           =  0,
   nat             =  17,
   nosym           =  .true.,
   ntyp            =  2,
   occupations     =  'smearing',
   smearing        =  'methfessel-paxton',
 /

 &ELECTRONS
   conv_thr        =  1d-7,
   electron_maxstep =  220,
   mixing_beta     =  0.2,
 /

 &IONS
   ion_dynamics    =  'fire',
   upscale         =  100,
 /

ATOMIC_SPECIES 
  Al    26.981539   Al.pbe-n-rrkjus_psl.0.1.UPF 
  O    15.9994   O.pbe-rrkjus.UPF 


CELL_PARAMETERS angstrom
    5.7115546069000001   0.0000000000000000   0.0000000000000000
   -2.8557773034000000   4.9463490783999999   0.0000000000000000
    0.0000000000000000   0.0000000000000000  18.2437163594999987

ATOMIC_POSITIONS angstrom
  O        1.428341250000   0.824128949000   7.788891561000
  Al       1.428386932000   2.523564812000   7.030951060000
  Al      -1.427429663000   2.472909996000   6.821796963000
  Al       2.900156712000  -0.025623537000   7.030989188000
  Al      -0.043390519000  -0.025628921000   7.030950830000
  Al      -1.427716902000   4.141024751000   4.630326537000
  Al       0.016861369000   1.639047269000   4.630292769000
  Al       2.839348772000   1.639098922000   4.630326537000
  Al       1.428032323000   4.121872673000   4.619067218000
  Al       2.855777120000   3.297564490000   2.331732400000   0  0  0
  Al       4.283665740000   0.824391040000   2.331732400000   0  0  0
  Al      -0.000000110000   3.297564490000   2.331732400000   0  0  0
  Al       1.427888500000   0.824391040000   2.331732400000   0  0  0
  Al       0.000000000000   0.000000000000   0.000000000000   0  0  0
  Al       1.427888620000   2.473173450000   0.000000000000   0  0  0
  Al       2.855777240000   0.000000000000   0.000000000000   0  0  0
  Al      -1.427888620000   2.473173450000   0.000000000000   0  0  0

K_POINTS automatic
  6   6   1   1   1   1 



